Geometry = GenFormat {
<<< 'graphene.gen'
}


Transport {
    Device {
      AtomRange = 1 80 
    FirstLayerAtoms =  1  17 33 49 65  
    }
    Contact {
      Id = "source"
      AtomRange = 81 96
    FermiLevel [eV] =  -4.632043 
      potential [eV] = 0.0 
    }
    Contact {
      Id = "drain"
      AtomRange = 97 112
    FermiLevel [eV] =  -4.632043 
      potential [eV] = 0.1 
    }
  }


Driver = {}

Hamiltonian = DFTB {
  SCC = Yes 
  SCCTolerance = 1e-7
  MaxAngularMomentum = {
    C = "p"
  }

  Filling = Fermi {
    Temperature [Kelvin] = 0
  }

  SlaterKosterFiles = {
    C-C = "C-C.skf"
  }

  
  KpointsAndWeights = SupercellFolding{
    1 0 0
    0 1 0
    0 0 8 
    0.0 0.0 0.0
  }


  Electrostatics = Poisson {
    MinimalGrid [Angstrom] = 0.4 0.4 0.4
    AtomDensityTolerance = 1e-5
    CutoffCheck = Yes   # Make sure you know what you are doing!
    BuildBulkPotential = No 
    SavePotential = Yes 
    PoissonAccuracy = 1e-5
    Verbosity=110
<<<<<<< HEAD
    BoxBufferLength [Angstrom]= 1.71
=======
    BoxExtension [Angstrom]= 1.71
>>>>>>> dftbplus_git
    BoundaryRegion = Square{
      BufferLength [Angstrom] = 3.0
    }
    Gate = Planar{
      GateLength [Angstrom] = 15.0
      GateDistance [Angstrom] = 10.0
      GatePotential [eV] = 1.0
    }
  }

  Eigensolver = GreensFunction {
<<<<<<< HEAD
    ContourPoints = 30 40
    RealAxisPoints = 10
=======
    ContourPoints = 30 42
    RealAxisPoints = 12
>>>>>>> dftbplus_git
    LowestEnergy [eV] = -60.0
  }

  #ReadInitialCharges = yes
	
}

Analysis{
  TunnelingAndDOS{
<<<<<<< HEAD
    EnergyRange [eV] = -6.00  -4.0
=======
    EnergyRange [eV] = -5.90  -4.00
>>>>>>> dftbplus_git
    EnergyStep [eV] = 0.02
  }
}

Options = {
<<<<<<< HEAD
  #MullikenAnalysis = Yes
  WriteAutotestTag = Yes
}


ParserOptions = {
  ParserVersion = 3
=======
  WriteAutotestTag = Yes
}

Parallel = {
  # Allow OMP threads explicitely to test for hybrid parallelisation with
  # MPI-binary. (Check the manual before using this in production runs!)
  UseOmpThreads = Yes
}

ParserOptions = {
  ParserVersion = 6
>>>>>>> dftbplus_git
}
