Geometry = GenFormat {
<<< 'device_7.gen'
}

Transport {
    Device {
      AtomRange = 1 135
      FirstLayerAtoms =  1 68
    }
    Contact {
      Id = "source"
      AtomRange = 136 271
      FermiLevel [eV] = -4.7103
      potential [eV] = 2.0
<<<<<<< HEAD
      #WriteSelfEnergy = Yes
      #ReadSelfEnergy = Yes
      #WriteSurfaceGF = Yes
      #ReadSurfaceGF = Yes
=======
      Temperature = 0.00001
>>>>>>> dftbplus_git
    }
    Contact {
      Id = "drain"
      AtomRange = 272 407
      FermiLevel [eV] = -4.7103
      potential [eV] = -2.0
<<<<<<< HEAD
      #WriteSelfEnergy = Yes
      #ReadSelfEnergy = Yes
      #WriteSurfaceGF = Yes
      #ReadSurfaceGF = Yes
=======
      Temperature = 0.00001
>>>>>>> dftbplus_git
    }
}

Hamiltonian = DFTB {
  SCC = No
<<<<<<< HEAD
  OrthonormalDevice = Yes
=======
>>>>>>> dftbplus_git
  MaxAngularMomentum = {
    C = "p"
    H = "s"
  }
  
  SlaterKosterFiles = Type2FileNames {
<<<<<<< HEAD
    #Prefix = "../../../slako/mio-0-1/"
    Separator = "-"
    Suffix = ".skf"
  }
  Dephasing {
    #BuettikerProbes = ZeroCurrent {
    #BuettikerProbes = ZeroPotential {
    #  Coupling [eV] = constant { 0.1 }
    #}
    VibronicElastic = local { 
      AtomBlock = Yes
    #  SemiLocal = Yes
      Coupling [eV] = Constant { 0.1 }
    #  Coupling [eV] = AtomCoupling { 
    #    AtomList { Atoms = 1
    #               Value = 0.1
    #    } 
    #    AtomList { Atoms = 2 3
    #               Value = 0.01
    #    }           
    #    AtomList { Atoms = 4 5
    #               Value = 0.03
    #    }
    #  }
    #  Coupling [eV] = AllOrbitals { 0.1 0.1 0.1 0.1 0.01 0.01 0.01 0.01 0.01 0.01 0.01 0.01 0.03 0.03 0.03 0.03 0.03 0.03 #0.03 0.03}  
      MaxNumIter = 100
    }
  }
  Eigensolver = TransportOnly{}
}

Analysis = {
TunnelingAndDos {
  Verbosity = 101
=======
    Prefix = ""
    Separator = "-"
    Suffix = ".skf"
  }

  Eigensolver = TransportOnly{}
}

# ************************************
# NOTE: Dephasing is not working yet
# ************************************ 
Dephasing {
  OrthonormalDevice = Yes
  VibronicElastic { 
    AtomBlock = Yes
    Coupling [eV] = Constant { 0.1 }
    MaxSCBAIterations = 100
  }
}

Analysis = {
TunnelingAndDos {
  Verbosity = 101
  delta = 0.000001
>>>>>>> dftbplus_git
  EnergyRange [eV] = -6.5  -6.3
  EnergyStep [eV] = 0.1
  Region = {
    Atoms = 1:135
  }
 }
}

Options = {
  WriteAutotestTag = Yes
}
<<<<<<< HEAD
=======

ParserOptions = {
  ParserVersion = 6
}

Parallel = {
  # Allow OMP threads explicitely to test for hybrid parallelisation with
  # MPI-binary. (Check the manual before using this in production runs!)
  UseOmpThreads = Yes
}
>>>>>>> dftbplus_git
