Geometry = GenFormat {
<<< 'C25.gen'
}

Transport {
  Device {
    AtomRange = 1 5
    FirstLayerAtoms =  1
  }
  Contact {
    Id = "source"
    AtomRange = 6 15
    FermiLevel [eV] = -5.6407  
    Potential [eV] = 1.
<<<<<<< HEAD
    #WideBand = Yes   
    #LevelSpacing = 0.231
    #WriteSelfEnergy = Yes
    #ReadSelfEnergy = Yes
    #WriteSurfaceGF = Yes
    ReadSurfaceGF = Yes
    Unformatted = Yes
=======
    ReadSurfaceGF = Yes
>>>>>>> dftbplus_git
  }
  Contact {
    Id = "drain"
    AtomRange = 16 25
    FermiLevel [eV] = -5.6407  
    Potential [eV] = -1.
<<<<<<< HEAD
    #WideBand = Yes  
    #LevelSpacing = 0.231
    #WriteSelfEnergy = Yes
    ReadSelfEnergy = Yes
    #WriteSurfaceGF = Yes
    #ReadSurfaceGF = Yes
    Unformatted = Yes
=======
    ReadSelfEnergy = Yes
>>>>>>> dftbplus_git
  }    
  Task = UploadContacts {}
}

Hamiltonian = DFTB {
  SCC = Yes
  SCCTolerance = 1e-01
<<<<<<< HEAD
  MaxSCCIterations = 2
  #EwaldParameter = 0.1
  #ReadInitialCharges = Yes
=======
>>>>>>> dftbplus_git
  MaxAngularMomentum = {
    C = "p"
  }  
  SlaterKosterFiles = Type2FileNames {
<<<<<<< HEAD
    #Prefix = "../../../slako/mio-0-1/"
    Separator = "-"
    Suffix = ".skf"
  }
  Dephasing {
    #BuettikerProbes = ZeroCurrent {
    #BuettikerProbes = ZeroPotential {
    #  Coupling [eV] = constant { 0.5 }
    #}
    VibronicElastic = local { 
      AtomBlock = Yes
    #  SemiLocal = Yes
    #  Coupling [eV] = Constant { 0.5 }
      Coupling [eV] = AtomCoupling { 
        AtomList { Atoms = 1
                   Value = 0.1
        } 
        AtomList { Atoms = 2 3
                   Value = 0.01
        }           
        AtomList { Atoms = 4 5
                   Value = 0.03
        }
      }
    #  Coupling [eV] = AllOrbitals { 0.1 0.1 0.1 0.1 0.01 0.01 0.01 0.01 0.01 0.01 0.01 0.01 0.03 0.03 0.03 0.03 0.03 0.03 0.03 0.03}  
    #  MaxNumIter = 100
    }
  }
  Electrostatics = Poisson {
    Poissonbox [Angstrom] = 45.0 10.0 10.0
    #MinimalGrid [Angstrom] = 0.5 0.5 0.5
    #SavePotential = Yes
  }
  #Eigensolver = TransportOnly{}
  Eigensolver = GreensFunction {}
  #Mixer = Broyden {
  #  MixingParameter = 0.02
  #}
}

=======
    Prefix = ""
    Separator = "-"
    Suffix = ".skf"
  }

  Electrostatics = Poisson {
    Poissonbox [Angstrom] = 45.0 10.0 10.0
  }
  Eigensolver = GreensFunction {}
}

# ************************************
# NOTE: Dephasing is not working yet
# ************************************ 
Dephasing = {
  VibronicElastic{ 
    AtomBlock = Yes
    Coupling [eV] = AtomCoupling { 
      AtomList { Atoms = 1
                 Value = 0.1
      } 
      AtomList { Atoms = 2 3
                 Value = 0.01
      }           
      AtomList { Atoms = 4 5
                 Value = 0.03
      }
    }
  }
}


>>>>>>> dftbplus_git
Analysis = {
  TunnelingAndDos {
    Verbosity = 101
    EnergyRange [eV] = -9.  -2.   
    EnergyStep [eV] =0.02
<<<<<<< HEAD
=======
    ContactTemperature = 0.00001 0.00001
>>>>>>> dftbplus_git
    Region = {
    Atoms = 1:5
    }
  }
}

Options = {
  WriteAutotestTag = Yes
}

<<<<<<< HEAD






=======
ParserOptions = {
  ParserVersion = 6
}

Parallel = {
  # Allow OMP threads explicitely to test for hybrid parallelisation with
  # MPI-binary. (Check the manual before using this in production runs!)
  UseOmpThreads = Yes
}
>>>>>>> dftbplus_git
